p cnf 50 20
x -2 4 -8 -10 11 12 13 -16 -17 -18 20 22 -24 25 -26 28 29 -30 31 -32 34 35 -40 42 -47 50 0
x -1 3 4 -5 7 9 -11 13 -15 17 18 -19 21 22 -23 -24 26 -27 -29 35 38 42 43 -44 -47 0
x -1 3 -5 -8 -11 -15 -16 18 19 -20 31 -32 -35 -40 43 -44 -45 46 -47 0
x -3 4 -11 14 15 -16 -20 -23 24 -27 -28 -29 31 37 39 41 -42 43 -46 -47 50 0
x -1 4 -8 9 -11 -13 -14 -17 -19 -21 -22 -23 25 27 -28 31 32 -33 -35 37 -40 42 43 -46 0
x -1 -2 -5 -6 -8 -9 11 -12 14 -15 -16 -19 20 21 -23 24 26 -29 31 -32 34 38 -42 45 50 0
x 8 10 11 13 -14 -15 16 -17 -19 -20 -21 22 23 24 27 31 -32 -33 -34 35 -36 -37 38 44 45 -47 -48 -49 -50 0
x 2 3 4 -5 -8 -9 -12 14 16 17 -18 19 -20 23 -25 28 35 -36 38 39 41 -42 -49 -50 0
x 3 5 -6 7 -8 -11 -12 14 15 16 17 -22 -23 -25 -27 -30 36 -38 43 44 -50 0
x 4 5 6 -8 -12 -14 -17 -21 -23 -26 -28 29 30 31 32 -33 34 -37 39 42 44 -46 -47 -50 0
x -1 -3 -4 -6 7 -8 10 -11 12 -13 14 17 -19 20 -21 22 29 -30 32 -34 -38 39 -42 -44 46 -48 0
x -1 -2 -3 5 -10 -11 13 22 -23 25 -28 -29 30 32 -34 35 -38 39 -43 -45 -46 -47 0
x 1 -4 8 -12 -13 14 -16 -20 21 23 25 -26 29 -30 -32 -37 -38 40 47 -49 0
x -2 3 4 -5 6 -7 -8 -9 11 15 -16 -19 -20 22 24 -25 26 28 29 -31 -32 34 -35 38 42 -44 46 -50 0
x -1 -3 6 -7 8 -12 -15 -16 -17 18 -20 -21 22 -25 -26 -27 -29 -30 -33 35 38 40 43 -46 47 -48 -50 0
x -2 3 -6 -7 -9 10 11 13 -14 15 -18 21 -24 -25 -26 -31 32 33 36 37 39 -43 45 -47 48 -49 0
x 1 -3 -4 6 -7 -10 -11 12 -13 -14 -15 17 -20 21 -22 -26 -28 31 35 -41 -43 44 45 46 49 50 0
x -2 -3 -6 -7 8 9 13 -15 21 -23 -26 -28 29 30 -31 -35 36 38 -41 0
x -1 2 -5 8 -9 10 11 -12 14 -16 17 -19 -20 21 23 27 29 -31 32 34 -36 -40 42 -47 0
x -1 -3 -6 7 9 13 16 17 -19 20 -22 -23 24 25 -27 28 29 30 -36 39 40 -42 44 -46 -47 -48 49 50 0
g -10